webassembly/ejemplos_dzn/5/folder5_json_13.dzn
TERM = { '.', 'local_0', 'local_1', 's(1)', 's(0)', 'in_0'};
null = '.';
s = 5;
n = 7;
ndeps = 0;
max_registers_sz = 4;
NR = 1;
registers = [|'local_0', 'in_0'|];
dependencies = [| |];
GET_ENUM = { GET1, GET2, GET3, GET4, GET5};
SET_ENUM = { SET1, SET2, SET3, SET4, SET5};
TEE_ENUM = { TEE1, TEE2, TEE3, TEE4, TEE5};
N = 3;
OP = { 'i32.const_0', 'i32.sub_0', 'local.get_0' };
in_ops = [0, 2, 0 ];
out_ops = [1, 1, 1 ];
in1 = ['.', 'local_1', '.' ];
in2 = ['.', 's(1)', '.' ];
in3 = ['.', '.', '.' ];
out1 = ['s(1)', 's(0)', 'local_1' ];
out2 = ['.', '.', '.' ];
out3 = ['.', '.', '.' ];
comm = [false, false, false ];
gas = [1, 1, 1 ];
sz = [1, 1, 1 ];
stor = [false, false, false ];
lb = [ 1, 1, 1 ];
ub = [ 5, 5, 5 ];
startstack = [ 'in_0', null, null, null, null, null, null ];
endstack = [ 's(0)', null, null, null, null, null, null ];
